(set-info :smt-lib-version 2.6)
(set-logic QF_LIA)
(set-info :category "industrial")
(set-info :status sat)
(declare-fun x0 () Int)
(declare-fun x1 () Int)
(declare-fun x10 () Int)
(declare-fun x11 () Int)
(declare-fun x12 () Int)
(declare-fun x13 () Int)
(declare-fun x14 () Int)
(declare-fun x15 () Int)
(declare-fun x16 () Int)
(declare-fun x17 () Int)
(declare-fun x18 () Int)
(declare-fun x19 () Int)
(declare-fun x2 () Int)
(declare-fun x20 () Int)
(declare-fun x21 () Int)
(declare-fun x22 () Int)
(declare-fun x23 () Int)
(declare-fun x24 () Int)
(declare-fun x25 () Int)
(declare-fun x26 () Int)
(declare-fun x27 () Int)
(declare-fun x28 () Int)
(declare-fun x29 () Int)
(declare-fun x3 () Int)
(declare-fun x4 () Int)
(declare-fun x5 () Int)
(declare-fun x6 () Int)
(declare-fun x7 () Int)
(declare-fun x8 () Int)
(declare-fun x9 () Int)
(assert (let ((?v_7 (* 0 x0)) (?v_12 (* 0 x19)) (?v_1 (* 0 x22)) (?v_73 (* 1 x16)) (?v_84 (* 2 x23)) (?v_18 (* 2 x5)) (?v_10 (* 0 x29)) (?v_35 (* 0 x3)) (?v_2 (* 0 x6)) (?v_60 (* 1 x7)) (?v_3 (* 2 x20)) (?v_20 (* 0 x12)) (?v_36 (* 1 x10)) (?v_14 (* 0 x21)) (?v_67 (* 0 x25)) (?v_40 (* 1 x23)) (?v_16 (* 0 x26)) (?v_29 (* 0 x28)) (?v_30 (* 0 x4)) (?v_6 (* 0 x8)) (?v_43 (* 0 x9)) (?v_31 (* 1 x27)) (?v_71 (* 1 x0)) (?v_74 (* 1 x18)) (?v_28 (* 0 x23)) (?v_9 (* 0 x11)) (?v_69 (* 0 x5)) (?v_17 (* 1 x28)) (?v_11 (* 0 x7)) (?v_63 (* 1 x3)) (?v_21 (* 1 x13)) (?v_53 (* 0 x15)) (?v_52 (* 0 x16)) (?v_33 (* 0 x18)) (?v_13 (* 0 x20)) (?v_48 (* 1 x21)) (?v_15 (* 0 x24)) (?v_94 (* 2 x26)) (?v_55 (* 2 x12)) (?v_66 (* 0 x13)) (?v_27 (* 0 x2)) (?v_41 (* 1 x25)) (?v_75 (* 1 x29)) (?v_88 (* 1 x11)) (?v_46 (* 1 x14)) (?v_44 (* 2 x0)) (?v_39 (* 0 x17)) (?v_47 (* 1 x20)) (?v_54 (* 1 x9))) (let ((?v_87 (+ ?v_11 (+ ?v_6 ?v_54))) (?v_72 (* 0 x14)) (?v_93 (* 1 x22)) (?v_59 (* 1 x4)) (?v_99 (* 2 x6)) (?v_62 (* 1 x1)) (?v_91 (* 1 x12)) (?v_80 (* 1 x8)) (?v_65 (* 0 x1)) (?v_81 (* 1 x17)) (?v_58 (* 1 x26)) (?v_68 (* 0 x27)) (?v_61 (* 0 x10)) (?v_86 (* 1 x5)) (?v_82 (+ ?v_6 ?v_31)) (?v_79 (* 1 x6)) (?v_85 (* 1 x24)) (?v_98 (* 1 x15)) (?v_92 (* 1 x19)) (?v_95 (* 2 x7)) (?v_100 (* 1 x2)) (?v_0 (* (- 2) x1)) (?v_97 (* (- 1) x12)) (?v_5 (* (- 1) x17)) (?v_45 (* (- 1) x18)) (?v_51 (* (- 1) x8)) (?v_49 (* (- 1) x0)) (?v_4 (* (- 1) x14)) (?v_22 (* (- 1) x15)) (?v_8 (* (- 1) x1)) (?v_32 (* (- 1) x13)) (?v_57 (* (- 1) x24)) (?v_24 (* (- 1) x26)) (?v_42 (* (- 1) x29)) (?v_26 (* (- 1) x9)) (?v_23 (* (- 1) x20)) (?v_25 (* (- 1) x3)) (?v_34 (* (- 1) x27)) (?v_19 (* (- 2) x10)) (?v_38 (* (- 1) x16)) (?v_64 (* (- 1) x19)) (?v_37 (* (- 1) x11)) (?v_77 (* (- 1) x23)) (?v_50 (* (- 1) x6)) (?v_56 (* (- 1) x2)) (?v_76 (* (- 1) x5)) (?v_70 (* (- 1) x21)) (?v_78 (* (- 1) x22)) (?v_83 (* (- 1) x10)) (?v_90 (* (- 1) x28)) (?v_89 (* (- 1) x25)) (?v_96 (* (- 1) x4))) (and (<= (+ ?v_7 (+ ?v_0 (+ ?v_97 (+ ?v_5 (+ ?v_45 (+ ?v_12 (+ ?v_1 (+ ?v_73 (+ ?v_84 (+ ?v_18 (+ ?v_51 (+ ?v_10 (+ ?v_35 (+ ?v_2 (+ ?v_60 ?v_3))))))))))))))) 0) (<= (+ ?v_49 (+ ?v_0 (+ ?v_20 (+ ?v_4 (+ ?v_36 (+ ?v_22 (+ ?v_14 (+ ?v_1 (+ ?v_67 (+ ?v_40 (+ (* (- 1) x7) (+ ?v_16 (+ ?v_29 (+ ?v_30 (+ ?v_2 (+ ?v_6 (+ ?v_43 (+ ?v_3 ?v_31)))))))))))))))))) 0) (<= (+ ?v_71 (+ ?v_8 (+ ?v_32 (+ ?v_4 (+ ?v_5 (+ ?v_74 (+ ?v_28 (+ ?v_57 (+ ?v_24 (+ ?v_42 (+ ?v_26 (+ ?v_9 (+ ?v_23 (+ ?v_69 (+ ?v_17 (+ ?v_2 (+ ?v_11 (+ ?v_6 ?v_63)))))))))))))))))) 0) (<= (+ ?v_7 (+ ?v_8 (+ ?v_4 (+ ?v_5 (+ ?v_25 (+ ?v_9 (+ ?v_21 (+ ?v_53 (+ ?v_52 (+ ?v_33 (+ ?v_13 (+ ?v_48 (+ ?v_15 (+ ?v_94 (+ ?v_34 (+ ?v_10 (+ ?v_2 ?v_11))))))))))))))))) 0) (<= (+ ?v_19 (+ ?v_7 (+ ?v_8 (+ ?v_55 (+ ?v_66 (+ ?v_12 (+ ?v_27 (+ ?v_13 (+ ?v_14 (+ ?v_15 (+ ?v_41 (+ ?v_16 (+ ?v_17 (+ ?v_18 (+ ?v_2 (+ ?v_11 (+ ?v_6 ?v_75))))))))))))))))) (- 1)) (<= (+ ?v_19 (+ ?v_8 (+ ?v_20 (+ ?v_88 (+ ?v_21 (+ ?v_46 (+ ?v_22 (+ ?v_38 (+ ?v_5 (+ ?v_64 (+ ?v_23 (+ ?v_24 (+ ?v_25 (+ ?v_26 (+ ?v_27 (+ ?v_1 (+ ?v_28 (+ ?v_29 (+ ?v_30 (+ ?v_2 ?v_31)))))))))))))))))))) (- 1)) (<= (+ ?v_44 (+ ?v_8 (+ ?v_37 (+ ?v_32 (+ ?v_39 (+ ?v_33 (+ (* 2 x16) (+ ?v_77 (+ ?v_47 (+ ?v_34 (+ ?v_50 (+ ?v_27 (+ ?v_17 (+ ?v_10 (+ ?v_35 (+ ?v_30 ?v_87)))))))))))))))) (- 1)) (<= (+ ?v_36 (+ ?v_37 (+ ?v_72 (+ (* (- 2) x20) (+ ?v_22 (+ ?v_38 (+ ?v_39 (+ ?v_14 (+ ?v_93 (+ ?v_29 (+ ?v_40 (+ ?v_41 (+ ?v_16 (+ ?v_42 (+ ?v_59 (+ ?v_99 (+ ?v_6 (+ ?v_43 (* 2 x1))))))))))))))))))) (- 1)) (<= (+ ?v_44 (+ ?v_22 (+ ?v_45 (+ ?v_12 (+ ?v_24 (+ ?v_25 (+ ?v_30 (+ ?v_43 (+ ?v_62 (+ ?v_91 (+ ?v_46 (+ ?v_47 (+ ?v_48 (+ ?v_40 (+ ?v_80 (* 2 x29)))))))))))))))) 1) (<= (+ ?v_49 (+ ?v_45 (+ ?v_56 (+ ?v_42 (+ ?v_76 (+ ?v_50 (+ ?v_51 (+ ?v_65 (+ ?v_9 (+ ?v_52 (+ ?v_12 (+ ?v_28 (+ ?v_29 (+ ?v_35 (+ ?v_21 (+ ?v_53 (+ ?v_81 (+ ?v_47 (+ ?v_48 (+ ?v_58 (+ ?v_68 ?v_54))))))))))))))))))))) (- 1)) (<= (+ ?v_7 (+ ?v_61 (+ ?v_9 (+ ?v_52 (+ ?v_39 (+ ?v_12 (+ ?v_55 (+ ?v_56 (+ (* 2 x22) (+ ?v_28 (+ ?v_57 (+ ?v_2 (+ ?v_43 (+ ?v_58 (+ ?v_10 (+ ?v_59 (+ ?v_86 (+ ?v_60 ?v_82)))))))))))))))))) 1) (<= (+ ?v_4 (+ ?v_7 (+ ?v_61 (+ ?v_37 (+ ?v_20 (+ ?v_21 (+ ?v_22 (+ ?v_56 (+ ?v_57 (+ ?v_24 (+ ?v_13 (+ ?v_34 (+ ?v_50 (+ ?v_10 (+ ?v_11 (+ ?v_6 (+ ?v_62 (+ ?v_63 (+ ?v_59 ?v_54))))))))))))))))))) (- 1)) (<= (+ ?v_64 (+ ?v_70 (+ ?v_78 (+ (* (- 3) x24) (+ ?v_26 (+ ?v_65 (+ ?v_61 (+ ?v_66 (+ ?v_46 (+ ?v_53 (+ ?v_52 (+ ?v_39 (+ ?v_28 (+ ?v_67 (+ ?v_68 (+ ?v_29 (+ ?v_10 (+ ?v_35 (+ ?v_30 (+ ?v_69 ?v_79)))))))))))))))))))) (- 1)) (<= (+ ?v_83 (+ ?v_70 (+ ?v_90 (+ ?v_71 (+ ?v_65 (+ ?v_66 (+ ?v_72 (+ ?v_53 (+ ?v_39 (+ ?v_12 (+ ?v_69 (+ ?v_73 (+ ?v_74 (+ ?v_85 (+ ?v_41 (+ ?v_75 (+ ?v_60 (+ (* 2 x2) (+ ?v_3 (* 3 x26)))))))))))))))))))) 1) (<= (+ ?v_20 (+ ?v_24 (+ ?v_76 (+ ?v_50 (+ ?v_65 (+ ?v_66 (+ ?v_52 (+ ?v_46 (+ ?v_98 (+ ?v_27 (+ ?v_13 (+ ?v_40 (+ ?v_15 (+ ?v_68 (+ ?v_17 (+ ?v_11 (+ ?v_43 ?v_75))))))))))))))))) 0) (<= (+ ?v_71 (+ ?v_36 (+ (* (- 2) x11) (+ ?v_38 (+ ?v_5 (+ (* (- 2) x21) (+ ?v_77 (+ ?v_65 (+ ?v_46 (+ ?v_92 (+ ?v_27 (+ ?v_16 (+ ?v_17 (+ ?v_2 (+ ?v_6 (+ ?v_43 (+ ?v_31 (+ ?v_75 (+ ?v_63 ?v_60))))))))))))))))))) (- 1)) (<= (+ ?v_49 (+ ?v_38 (+ ?v_78 (+ ?v_77 (+ ?v_42 (+ ?v_65 (+ ?v_36 (+ ?v_9 (+ ?v_74 (+ ?v_27 (+ ?v_69 (+ ?v_47 (+ (* 2 x25) (+ ?v_58 (+ ?v_79 (+ ?v_60 ?v_80)))))))))))))))) (- 1)) (<= (+ ?v_37 (+ ?v_57 (+ ?v_65 (+ ?v_20 (+ ?v_36 (+ ?v_66 (+ ?v_12 (+ ?v_28 (+ ?v_67 (+ ?v_46 (+ ?v_73 (+ ?v_81 (+ ?v_48 (+ ?v_16 (+ ?v_10 (+ ?v_35 (+ ?v_2 ?v_82))))))))))))))))) 1) (<= (+ ?v_45 (+ ?v_78 (+ ?v_61 (+ ?v_20 (+ ?v_72 (+ ?v_81 (+ ?v_12 (+ ?v_42 (+ ?v_9 (+ ?v_21 (+ ?v_53 (+ ?v_13 (+ ?v_28 (+ ?v_67 (+ (* 2 x24) (+ ?v_16 (+ ?v_68 (+ ?v_2 ?v_80)))))))))))))))))) 0) (<= (+ (* (- 2) x4) (+ ?v_83 (+ ?v_32 (+ ?v_64 (+ ?v_70 (+ ?v_89 (+ ?v_72 (+ ?v_53 (+ ?v_39 (+ ?v_29 (+ ?v_73 (+ ?v_84 (+ ?v_85 (+ ?v_10 (+ ?v_63 (+ ?v_86 (+ ?v_79 (* 3 x2)))))))))))))))))) (- 1)) (<= (+ ?v_83 (+ ?v_78 (+ ?v_76 (+ ?v_26 (+ ?v_7 (+ ?v_20 (+ ?v_21 (+ ?v_46 (+ ?v_53 (+ ?v_12 (+ ?v_13 (+ ?v_28 (+ ?v_15 (+ ?v_41 (+ ?v_58 (+ ?v_10 (+ ?v_30 (+ ?v_2 (+ ?v_11 ?v_6))))))))))))))))))) 0) (<= (+ ?v_64 (+ ?v_61 (+ ?v_66 (+ (* 2 x14) (+ ?v_53 (+ ?v_52 (+ ?v_33 (+ ?v_27 (+ ?v_14 (+ ?v_28 (+ ?v_16 (+ ?v_47 (+ ?v_68 (+ ?v_29 (+ ?v_10 (+ ?v_59 (+ ?v_86 ?v_87))))))))))))))))) (- 1)) (<= (+ (* (- 2) x13) (+ ?v_81 (+ ?v_12 (+ (* (- 2) x23) (+ ?v_88 (+ ?v_23 (+ ?v_89 (+ ?v_24 (+ ?v_76 (+ ?v_50 (+ ?v_53 (+ ?v_27 (+ ?v_14 (+ ?v_15 (+ ?v_68 (+ ?v_29 (+ ?v_11 ?v_80))))))))))))))))) 0) (<= (+ ?v_49 (+ ?v_38 (+ ?v_45 (+ ?v_78 (+ ?v_90 (+ ?v_91 (+ ?v_96 (+ ?v_61 (+ ?v_51 (+ ?v_66 (+ ?v_53 (+ ?v_27 (+ ?v_14 (+ ?v_85 (+ ?v_41 (+ ?v_16 (+ ?v_68 (+ ?v_35 (+ ?v_69 (+ ?v_62 ?v_79)))))))))))))))))))) (- 1)) (<= (+ ?v_4 (+ ?v_36 (+ ?v_91 (+ ?v_57 (+ ?v_90 (+ ?v_9 (+ ?v_66 (+ ?v_39 (+ (* 2 x18) (+ ?v_92 (+ ?v_27 (+ ?v_69 (+ ?v_2 (+ ?v_6 (+ ?v_43 (+ ?v_47 (+ ?v_93 (+ ?v_40 (+ ?v_68 (+ ?v_59 ?v_95)))))))))))))))))))) 0) (<= (+ ?v_9 (+ ?v_33 (+ ?v_91 (+ ?v_66 (+ ?v_13 (+ ?v_28 (+ ?v_48 (+ ?v_15 (+ ?v_41 (+ ?v_17 (+ ?v_94 (+ ?v_35 (+ ?v_30 (+ ?v_31 (+ ?v_86 ?v_95))))))))))))))) (- 1)) (<= (+ ?v_49 (+ ?v_61 (+ ?v_37 (+ ?v_32 (+ ?v_70 (+ ?v_78 (+ ?v_72 (+ ?v_73 (+ (* 2 x17) (+ ?v_57 (+ ?v_50 (+ ?v_53 (+ ?v_13 (+ ?v_28 (+ ?v_68 (+ ?v_6 (+ ?v_43 (+ ?v_62 (+ ?v_100 (+ ?v_58 (+ ?v_63 ?v_59))))))))))))))))))))) (- 1)) (<= (+ ?v_45 (+ ?v_61 (+ ?v_71 (+ (* 3 x19) (+ ?v_42 (+ ?v_96 (+ ?v_26 (+ ?v_21 (+ ?v_27 (+ ?v_93 (+ ?v_28 (+ ?v_15 (+ ?v_41 (+ ?v_2 (+ ?v_58 (+ ?v_63 ?v_18)))))))))))))))) (- 1)) (<= (+ ?v_37 (+ ?v_97 (+ ?v_5 (+ ?v_12 (+ ?v_77 (+ ?v_24 (+ ?v_13 (+ ?v_14 (+ ?v_67 (+ ?v_35 (+ ?v_2 (+ ?v_98 (+ ?v_73 (+ ?v_74 (+ ?v_31 (+ ?v_86 (+ (* 2 x4) (+ ?v_60 ?v_54)))))))))))))))))) 1) (<= (+ ?v_7 (+ ?v_61 (+ ?v_91 (+ ?v_72 (+ ?v_39 (+ ?v_73 (+ ?v_14 (+ ?v_28 (+ ?v_29 (+ ?v_42 (+ ?v_96 (+ ?v_9 (+ ?v_99 (+ ?v_11 (+ ?v_43 (+ ?v_100 (+ ?v_47 ?v_80))))))))))))))))) 0)))))
(check-sat)
(exit)
